(set-option :produce-models true); benchmark generated from python API
(set-info :status unknown)
(declare-fun l_1_0_33 () Real)
(declare-fun l_1_0_32 () Real)
(declare-fun l_1_0_24 () Real)
(declare-fun l_1_0_13 () Real)
(declare-fun l_1_0_1 () Real)
(declare-fun _a_0_ () Real)
(declare-fun l_1_0_7 () Real)
(declare-fun l_1_0_5 () Real)
(declare-fun l_1_0_36 () Real)
(declare-fun l_1_0_25 () Real)
(declare-fun l_1_0_19 () Real)
(declare-fun l_1_0_14 () Real)
(declare-fun l_1_0_10 () Real)
(declare-fun _a_1_ () Real)
(declare-fun l_1_0_8 () Real)
(declare-fun l_1_0_34 () Real)
(declare-fun l_1_0_30 () Real)
(declare-fun l_1_0_3 () Real)
(declare-fun l_1_0_27 () Real)
(declare-fun l_1_0_26 () Real)
(declare-fun l_1_0_18 () Real)
(declare-fun _a_2_ () Real)
(declare-fun l_1_0_9 () Real)
(declare-fun l_1_0_38 () Real)
(declare-fun l_1_0_37 () Real)
(declare-fun l_1_0_28 () Real)
(declare-fun l_1_0_23 () Real)
(declare-fun l_1_0_2 () Real)
(declare-fun _a_3_ () Real)
(declare-fun l_1_0_6 () Real)
(declare-fun l_1_0_4 () Real)
(declare-fun l_1_0_35 () Real)
(declare-fun l_1_0_29 () Real)
(declare-fun l_1_0_20 () Real)
(declare-fun l_1_0_16 () Real)
(declare-fun l_1_0_15 () Real)
(declare-fun l_1_0_12 () Real)
(declare-fun l_1_0_11 () Real)
(declare-fun l_1_0_31 () Real)
(declare-fun l_1_0_22 () Real)
(declare-fun l_1_0_21 () Real)
(declare-fun l_1_0_17 () Real)
(declare-fun l_1_1_4 () Real)
(declare-fun l_1_1_33 () Real)
(declare-fun l_1_1_32 () Real)
(declare-fun l_1_1_31 () Real)
(declare-fun l_1_1_30 () Real)
(declare-fun l_1_1_27 () Real)
(declare-fun l_1_1_24 () Real)
(declare-fun l_1_1_11 () Real)
(declare-fun l_1_1_10 () Real)
(declare-fun l_1_1_1 () Real)
(declare-fun l_1_1_7 () Real)
(declare-fun l_1_1_23 () Real)
(declare-fun l_1_1_22 () Real)
(declare-fun l_1_1_21 () Real)
(declare-fun l_1_1_15 () Real)
(declare-fun l_1_1_8 () Real)
(declare-fun l_1_1_6 () Real)
(declare-fun l_1_1_5 () Real)
(declare-fun l_1_1_38 () Real)
(declare-fun l_1_1_37 () Real)
(declare-fun l_1_1_36 () Real)
(declare-fun l_1_1_25 () Real)
(declare-fun l_1_1_20 () Real)
(declare-fun l_1_1_16 () Real)
(declare-fun l_1_1_13 () Real)
(declare-fun l_1_1_12 () Real)
(declare-fun l_1_1_9 () Real)
(declare-fun l_1_1_34 () Real)
(declare-fun l_1_1_3 () Real)
(declare-fun l_1_1_2 () Real)
(declare-fun l_1_1_19 () Real)
(declare-fun l_1_1_18 () Real)
(declare-fun l_1_1_26 () Real)
(declare-fun l_1_1_17 () Real)
(declare-fun l_1_1_35 () Real)
(declare-fun l_1_1_29 () Real)
(declare-fun l_1_1_28 () Real)
(declare-fun l_1_1_14 () Real)
(declare-fun l_1_2_8 () Real)
(declare-fun l_1_2_6 () Real)
(declare-fun l_1_2_45 () Real)
(declare-fun l_1_2_44 () Real)
(declare-fun l_1_2_42 () Real)
(declare-fun l_1_2_40 () Real)
(declare-fun l_1_2_39 () Real)
(declare-fun l_1_2_28 () Real)
(declare-fun l_1_2_20 () Real)
(declare-fun l_1_2_19 () Real)
(declare-fun l_1_2_18 () Real)
(declare-fun l_1_2_17 () Real)
(declare-fun l_1_2_16 () Real)
(declare-fun l_1_2_12 () Real)
(declare-fun l_1_2_11 () Real)
(declare-fun l_1_2_1 () Real)
(declare-fun l_1_2_7 () Real)
(declare-fun l_1_2_34 () Real)
(declare-fun l_1_2_30 () Real)
(declare-fun l_1_2_3 () Real)
(declare-fun l_1_2_24 () Real)
(declare-fun l_1_2_23 () Real)
(declare-fun l_1_2_21 () Real)
(declare-fun l_1_2_46 () Real)
(declare-fun l_1_2_43 () Real)
(declare-fun l_1_2_35 () Real)
(declare-fun l_1_2_33 () Real)
(declare-fun l_1_2_32 () Real)
(declare-fun l_1_2_31 () Real)
(declare-fun l_1_2_15 () Real)
(declare-fun l_1_2_13 () Real)
(declare-fun l_1_2_37 () Real)
(declare-fun l_1_2_25 () Real)
(declare-fun l_1_2_9 () Real)
(declare-fun l_1_2_50 () Real)
(declare-fun l_1_2_5 () Real)
(declare-fun l_1_2_49 () Real)
(declare-fun l_1_2_48 () Real)
(declare-fun l_1_2_41 () Real)
(declare-fun l_1_2_4 () Real)
(declare-fun l_1_2_38 () Real)
(declare-fun l_1_2_36 () Real)
(declare-fun l_1_2_27 () Real)
(declare-fun l_1_2_22 () Real)
(declare-fun l_1_2_14 () Real)
(declare-fun l_1_2_10 () Real)
(declare-fun l_1_2_47 () Real)
(declare-fun l_1_2_29 () Real)
(declare-fun l_1_2_2 () Real)
(declare-fun l_1_2_26 () Real)
(declare-fun l_1_3_9 () Real)
(declare-fun l_1_3_8 () Real)
(declare-fun l_1_3_33 () Real)
(declare-fun l_1_3_32 () Real)
(declare-fun l_1_3_30 () Real)
(declare-fun l_1_3_24 () Real)
(declare-fun l_1_3_20 () Real)
(declare-fun l_1_3_16 () Real)
(declare-fun l_1_3_15 () Real)
(declare-fun l_1_3_1 () Real)
(declare-fun l_1_3_5 () Real)
(declare-fun l_1_3_4 () Real)
(declare-fun l_1_3_3 () Real)
(declare-fun l_1_3_2 () Real)
(declare-fun l_1_3_19 () Real)
(declare-fun l_1_3_36 () Real)
(declare-fun l_1_3_28 () Real)
(declare-fun l_1_3_27 () Real)
(declare-fun l_1_3_25 () Real)
(declare-fun l_1_3_18 () Real)
(declare-fun l_1_3_13 () Real)
(declare-fun l_1_3_29 () Real)
(declare-fun l_1_3_12 () Real)
(declare-fun l_1_3_34 () Real)
(declare-fun l_1_3_31 () Real)
(declare-fun l_1_3_23 () Real)
(declare-fun l_1_3_17 () Real)
(declare-fun l_1_3_14 () Real)
(declare-fun l_1_3_10 () Real)
(declare-fun l_1_3_22 () Real)
(declare-fun l_1_3_11 () Real)
(declare-fun l_1_3_38 () Real)
(declare-fun l_1_3_37 () Real)
(declare-fun l_1_3_21 () Real)
(declare-fun l_1_3_7 () Real)
(declare-fun l_1_3_35 () Real)
(declare-fun l_1_3_26 () Real)
(declare-fun l_1_3_6 () Real)
(assert
 (let ((?x129 (* l_1_0_33 l_1_0_33)))
 (let ((?x2499 (- (- (- (- (- _a_0_ l_1_0_1) l_1_0_13) l_1_0_24) l_1_0_32) ?x129)))
 (= ?x2499 0.0))))
(assert
 (let ((?x1944 (- (+ (+ (- (- _a_1_ l_1_0_10) l_1_0_14) l_1_0_19) l_1_0_25) (* (* 2.0 l_1_0_33) l_1_0_36))))
 (= (- (+ ?x1944 l_1_0_5) l_1_0_7) 0.0)))
(assert
 (let ((?x2449 (- (- (+ (- (+ _a_2_ l_1_0_18) l_1_0_26) l_1_0_27) l_1_0_3) l_1_0_30)))
 (= (+ (- ?x2449 (* (* 2.0 l_1_0_33) l_1_0_34)) l_1_0_8) 0.0)))
(assert
 (let ((?x770 (* l_1_0_38 l_1_0_38)))
 (let ((?x2408 (* l_1_0_37 l_1_0_37)))
 (let ((?x2406 (* l_1_0_36 l_1_0_36)))
 (let ((?x2347 (- (- (- (- (+ (+ _a_3_ l_1_0_2) l_1_0_23) l_1_0_28) ?x2406) ?x2408) ?x770)))
 (= (- ?x2347 l_1_0_9) 0.0))))))
(assert
 (let ((?x2363 (- (+ (+ (+ (- l_1_0_11) l_1_0_12) l_1_0_15) l_1_0_16) l_1_0_20)))
 (let ((?x1956 (- (- (- ?x2363 l_1_0_29) (* (* 2.0 l_1_0_34) l_1_0_36)) (* (* 2.0 l_1_0_35) l_1_0_37))))
 (= (+ (- ?x1956 l_1_0_4) l_1_0_6) 0.0))))
(assert
 (let ((?x2196 (* l_1_0_35 l_1_0_35)))
 (let ((?x2194 (* l_1_0_34 l_1_0_34)))
 (let ((?x2197 (- (- (- (- (+ l_1_0_17 l_1_0_21) l_1_0_22) l_1_0_31) ?x2194) ?x2196)))
 (= ?x2197 0.0)))))
(assert
 (>= l_1_0_1 0.0))
(assert
 (>= l_1_0_2 0.0))
(assert
 (>= l_1_0_3 0.0))
(assert
 (>= l_1_0_4 0.0))
(assert
 (>= l_1_0_5 0.0))
(assert
 (>= l_1_0_6 0.0))
(assert
 (>= l_1_0_7 0.0))
(assert
 (>= l_1_0_8 0.0))
(assert
 (>= l_1_0_9 0.0))
(assert
 (>= l_1_0_10 0.0))
(assert
 (>= l_1_0_11 0.0))
(assert
 (>= l_1_0_12 0.0))
(assert
 (>= l_1_0_13 0.0))
(assert
 (>= l_1_0_14 0.0))
(assert
 (>= l_1_0_15 0.0))
(assert
 (>= l_1_0_16 0.0))
(assert
 (>= l_1_0_17 0.0))
(assert
 (>= l_1_0_18 0.0))
(assert
 (>= l_1_0_19 0.0))
(assert
 (>= l_1_0_20 0.0))
(assert
 (>= l_1_0_21 0.0))
(assert
 (>= l_1_0_22 0.0))
(assert
 (>= l_1_0_23 0.0))
(assert
 (>= l_1_0_24 0.0))
(assert
 (>= l_1_0_25 0.0))
(assert
 (>= l_1_0_26 0.0))
(assert
 (>= l_1_0_27 0.0))
(assert
 (>= l_1_0_28 0.0))
(assert
 (>= l_1_0_29 0.0))
(assert
 (>= l_1_0_30 0.0))
(assert
 (>= l_1_0_31 0.0))
(assert
 (>= l_1_0_32 0.0))
(assert
 (>= l_1_0_33 0.0))
(assert
 (>= l_1_0_35 0.0))
(assert
 (>= l_1_0_38 0.0))
(assert
 (let ((?x1964 (* 5.0 l_1_1_4)))
 (let ((?x1962 (* l_1_1_33 l_1_1_33)))
 (let ((?x1959 (* 25.0 l_1_1_31)))
 (let ((?x1954 (* 5.0 l_1_1_27)))
 (let ((?x1951 (* 5.0 l_1_1_11)))
 (let ((?x2051 (* _a_0_ l_1_1_7)))
 (let ((?x2049 (* _a_0_ l_1_1_23)))
 (let ((?x2047 (* _a_0_ l_1_1_22)))
 (let ((?x2046 (+ (* (* 5.0 _a_0_) l_1_1_15) (* (* 5.0 _a_0_) l_1_1_21))))
 (let ((?x1950 (- (- (- (- (- ?x2046 ?x2047) ?x2049) ?x2051) l_1_1_1) (* (* l_1_1_10 _a_0_) _a_0_))))
 (let ((?x1961 (- (- (- (+ (- (+ ?x1950 ?x1951) l_1_1_24) ?x1954) l_1_1_30) ?x1959) l_1_1_32)))
 (= (+ (- ?x1961 ?x1962) ?x1964) 0.0)))))))))))))
(assert
 (let ((?x1817 (* 15.0 l_1_1_8)))
 (let ((?x1821 (* l_1_1_38 l_1_1_38)))
 (let ((?x1822 (* l_1_1_37 l_1_1_37)))
 (let ((?x1823 (* l_1_1_36 l_1_1_36)))
 (let ((?x99 (* 100.0 l_1_1_25)))
 (let ((?x1841 (* 15.0 l_1_1_16)))
 (let ((?x1849 (* _a_3_ l_1_1_7)))
 (let ((?x1831 (- (- (- (* (- _a_3_) l_1_1_22) (* _a_3_ l_1_1_23)) ?x1849) (* l_1_1_10 (+ (* (* 2.0 _a_0_) _a_3_) (* _a_1_ _a_1_))))))
 (let ((?x1839 (- (- (- ?x1831 l_1_1_12) l_1_1_13) (* l_1_1_15 (- _a_1_ (* 5.0 _a_3_))))))
 (let ((?x101 (- (- (+ ?x1839 ?x1841) l_1_1_20) (* l_1_1_21 (- _a_1_ (* 5.0 _a_3_))))))
 (let ((?x87 (- (- (- (- (- (- ?x101 ?x99) l_1_1_31) ?x1823) ?x1822) ?x1821) (* l_1_1_5 (- _a_0_ (* 10.0 _a_1_))))))
 (let ((?x81 (- (+ (- ?x87 (* l_1_1_6 (- _a_0_ (* 10.0 _a_1_)))) ?x1817) (/ 5.0 2.0))))
 (= ?x81 0.0))))))))))))))
(assert
 (let ((?x1406 (* 50.0 l_1_1_8)))
 (let ((?x96 (* 10.0 l_1_1_31)))
 (let ((?x1329 (* 10.0 l_1_1_20)))
 (let ((?x1397 (* 50.0 l_1_1_16)))
 (let ((?x1280 (* 10.0 l_1_1_13)))
 (let ((?x1390 (* 10.0 l_1_1_12)))
 (let ((?x1388 (* _a_1_ l_1_1_7)))
 (let ((?x1387 (* _a_1_ l_1_1_23)))
 (let ((?x1503 (* _a_1_ l_1_1_22)))
 (let ((?x1341 (+ (* (* (* (- 2.0) _a_0_) _a_1_) l_1_1_10) (* (* 10.0 _a_0_) l_1_1_5))))
 (let ((?x1389 (- (- (- (+ ?x1341 (* (* 10.0 _a_0_) l_1_1_6)) ?x1503) ?x1387) ?x1388)))
 (let ((?x1396 (- (+ (+ (- ?x1389 l_1_1_11) ?x1390) ?x1280) (* l_1_1_15 (- _a_0_ (* 5.0 _a_1_))))))
 (let ((?x94 (- (+ (- ?x1396 ?x1397) ?x1329) (* l_1_1_21 (- _a_0_ (* 5.0 _a_1_))))))
 (let ((?x1405 (- (- (+ (- ?x94 l_1_1_27) ?x96) (* (* 2.0 l_1_1_33) l_1_1_36)) l_1_1_4)))
 (= (- (- ?x1405 ?x1406) 4.0) 0.0))))))))))))))))
(assert
 (let ((?x1113 (* 10.0 l_1_1_9)))
 (let ((?x1115 (* 10.0 l_1_1_3)))
 (let ((?x1116 (* 50.0 l_1_1_2)))
 (let ((?x1126 (* 50.0 l_1_1_19)))
 (let ((?x1124 (* 10.0 l_1_1_18)))
 (let ((?x1121 (* _a_2_ l_1_1_7)))
 (let ((?x1119 (* _a_2_ l_1_1_23)))
 (let ((?x1117 (* _a_2_ l_1_1_22)))
 (let ((?x1148 (+ (* (* (* (- 2.0) _a_0_) _a_2_) l_1_1_10) (* (* 10.0 _a_0_) l_1_1_17))))
 (let ((?x1154 (+ (+ ?x1148 (* (* 10.0 _a_0_) l_1_1_26)) (* (* 5.0 _a_2_) l_1_1_15))))
 (let ((?x1122 (- (- (- (+ ?x1154 (* (* 5.0 _a_2_) l_1_1_21)) ?x1117) ?x1119) ?x1121)))
 (let ((?x62 (- (+ (- (- (+ ?x1122 ?x1124) ?x1126) ?x1116) ?x1115) (* (* 2.0 l_1_1_33) l_1_1_34))))
 (= (+ (+ ?x62 ?x1113) 1.0) 0.0))))))))))))))
(assert
 (let ((?x52 (* l_1_1_35 l_1_1_35)))
 (let ((?x690 (* l_1_1_34 l_1_1_34)))
 (let ((?x687 (* 100.0 l_1_1_29)))
 (let ((?x1057 (* 5.0 l_1_1_2)))
 (let ((?x1056 (* 5.0 l_1_1_19)))
 (let ((?x55 (- (* (* (- l_1_1_10) _a_2_) _a_2_) (* l_1_1_17 (- _a_0_ (* 10.0 _a_2_))))))
 (let ((?x680 (- (+ (+ (- ?x55 l_1_1_18) ?x1056) ?x1057) (* l_1_1_26 (- _a_0_ (* 10.0 _a_2_))))))
 (= (- (- (- (- (- ?x680 ?x687) l_1_1_3) ?x690) ?x52) l_1_1_9) 0.0)))))))))
(assert
 (let ((?x776 (* 100.0 l_1_1_28)))
 (let ((?x773 (* 10.0 l_1_1_2)))
 (let ((?x771 (* 10.0 l_1_1_19)))
 (let ((?x868 (* 100.0 l_1_1_14)))
 (let ((?x1107 (* _a_2_ l_1_1_21)))
 (let ((?x1108 (* _a_2_ l_1_1_15)))
 (let ((?x856 (+ (* (* (* (- 2.0) _a_1_) _a_2_) l_1_1_10) (* (* 10.0 _a_1_) l_1_1_17))))
 (let ((?x864 (+ (- (- (+ ?x856 (* (* 10.0 _a_1_) l_1_1_26)) ?x1108) ?x1107) (* (* 10.0 _a_2_) l_1_1_5))))
 (let ((?x775 (+ (+ (- (+ ?x864 (* (* 10.0 _a_2_) l_1_1_6)) ?x868) ?x771) ?x773)))
 (let ((?x785 (- (- (- ?x775 ?x776) (* (* 2.0 l_1_1_34) l_1_1_36)) (* (* 2.0 l_1_1_35) l_1_1_37))))
 (= ?x785 0.0))))))))))))
(assert
 (let ((?x647 (* 10.0 l_1_1_28)))
 (let ((?x644 (* 10.0 l_1_1_14)))
 (let ((?x645 (- (+ (- (* (- _a_1_) l_1_1_17) (* _a_1_ l_1_1_26)) ?x644) l_1_1_19)))
 (= (+ (- ?x645 l_1_1_2) ?x647) 0.0)))))
(assert
 (let ((?x559 (* 20.0 l_1_1_25)))
 (let ((?x1709 (* _a_3_ l_1_1_21)))
 (let ((?x1377 (* _a_3_ l_1_1_15)))
 (let ((?x557 (- (- (- (* (* (* (- 2.0) _a_1_) _a_3_) l_1_1_10) ?x1377) ?x1709) l_1_1_16)))
 (let ((?x568 (- (- (+ ?x557 ?x559) (* l_1_1_5 (- _a_1_ (* 10.0 _a_3_)))) (* l_1_1_6 (- _a_1_ (* 10.0 _a_3_))))))
 (= (- ?x568 l_1_1_8) 0.0)))))))
(assert
 (let ((?x647 (* 10.0 l_1_1_28)))
 (let ((?x644 (* 10.0 l_1_1_14)))
 (let ((?x696 (* _a_2_ l_1_1_6)))
 (let ((?x695 (* _a_2_ l_1_1_5)))
 (let ((?x440 (+ (- (- (* (* (* (- 2.0) _a_2_) _a_3_) l_1_1_10) ?x695) ?x696) (* (* 10.0 _a_3_) l_1_1_17))))
 (= (+ (+ (+ ?x440 (* (* 10.0 _a_3_) l_1_1_26)) ?x644) ?x647) 0.0)))))))
(assert
 (let ((?x401 (- (- (* (- _a_3_) l_1_1_5) (* _a_3_ l_1_1_6)) (* (* l_1_1_10 _a_3_) _a_3_))))
 (= (- ?x401 l_1_1_25) 0.0)))
(assert
 (let ((?x381 (- (- (- (* (- _a_3_) l_1_1_17) (* _a_3_ l_1_1_26)) l_1_1_14) l_1_1_28)))
 (= ?x381 0.0)))
(assert
 (let ((?x333 (+ (- (* (- _a_2_) l_1_1_17) (* _a_2_ l_1_1_26)) (* 20.0 l_1_1_29))))
 (= ?x333 0.0)))
(assert
 (= (- l_1_1_29) 0.0))
(assert
 (>= l_1_1_1 0.0))
(assert
 (>= l_1_1_2 0.0))
(assert
 (>= l_1_1_3 0.0))
(assert
 (>= l_1_1_4 0.0))
(assert
 (>= l_1_1_5 0.0))
(assert
 (>= l_1_1_6 0.0))
(assert
 (>= l_1_1_7 0.0))
(assert
 (>= l_1_1_8 0.0))
(assert
 (>= l_1_1_9 0.0))
(assert
 (>= l_1_1_10 0.0))
(assert
 (>= l_1_1_11 0.0))
(assert
 (>= l_1_1_12 0.0))
(assert
 (>= l_1_1_13 0.0))
(assert
 (>= l_1_1_14 0.0))
(assert
 (>= l_1_1_15 0.0))
(assert
 (>= l_1_1_16 0.0))
(assert
 (>= l_1_1_17 0.0))
(assert
 (>= l_1_1_18 0.0))
(assert
 (>= l_1_1_19 0.0))
(assert
 (>= l_1_1_20 0.0))
(assert
 (>= l_1_1_21 0.0))
(assert
 (>= l_1_1_22 0.0))
(assert
 (>= l_1_1_23 0.0))
(assert
 (>= l_1_1_24 0.0))
(assert
 (>= l_1_1_25 0.0))
(assert
 (>= l_1_1_26 0.0))
(assert
 (>= l_1_1_27 0.0))
(assert
 (>= l_1_1_28 0.0))
(assert
 (>= l_1_1_29 0.0))
(assert
 (>= l_1_1_30 0.0))
(assert
 (>= l_1_1_31 0.0))
(assert
 (>= l_1_1_32 0.0))
(assert
 (>= l_1_1_33 0.0))
(assert
 (>= l_1_1_35 0.0))
(assert
 (>= l_1_1_38 0.0))
(assert
 (let ((?x943 (* 5.0 l_1_2_6)))
 (let ((?x138 (* l_1_2_45 l_1_2_45)))
 (let ((?x167 (* 5.0 l_1_2_39)))
 (let ((?x165 (* 25.0 l_1_2_28)))
 (let ((?x164 (* 5.0 l_1_2_18)))
 (let ((?x183 (* 5.0 l_1_2_17)))
 (let ((?x181 (* 5.0 l_1_2_16)))
 (let ((?x206 (* _a_0_ l_1_2_7)))
 (let ((?x202 (* _a_0_ l_1_2_30)))
 (let ((?x200 (* _a_0_ l_1_2_3)))
 (let ((?x199 (+ (- (* (- _a_0_) l_1_2_21) (* _a_0_ l_1_2_23)) (* (* 5.0 _a_0_) l_1_2_24))))
 (let ((?x207 (- (+ (- (- ?x199 ?x200) ?x202) (* (* 5.0 _a_0_) l_1_2_34)) ?x206)))
 (let ((?x185 (+ (+ (+ (- (- (- ?x207 l_1_2_1) l_1_2_11) l_1_2_12) ?x181) ?x183) ?x164)))
 (let ((?x168 (+ (- (- (- ?x185 l_1_2_19) (* (* l_1_2_20 _a_0_) _a_0_)) ?x165) ?x167)))
 (let ((?x955 (- (+ (- (- (- (- ?x168 l_1_2_40) l_1_2_42) l_1_2_44) ?x138) ?x943) l_1_2_8)))
 (= ?x955 0.0)))))))))))))))))
(assert
 (let ((?x2422 (* 10.0 l_1_2_43)))
 (let ((?x2427 (* 10.0 l_1_2_35)))
 (let ((?x2413 (* 10.0 l_1_2_33)))
 (let ((?x2411 (* 50.0 l_1_2_32)))
 (let ((?x2415 (* 50.0 l_1_2_31)))
 (let ((?x2290 (* 10.0 l_1_2_15)))
 (let ((?x1267 (* 10.0 l_1_2_13)))
 (let ((?x1251 (* _a_2_ l_1_2_7)))
 (let ((?x1240 (* _a_2_ l_1_2_30)))
 (let ((?x1236 (* _a_2_ l_1_2_3)))
 (let ((?x1230 (* _a_2_ l_1_2_23)))
 (let ((?x1228 (* _a_2_ l_1_2_21)))
 (let ((?x1262 (+ (* (* (* (- 2.0) _a_0_) _a_2_) l_1_2_20) (* (* 10.0 _a_0_) l_1_2_25))))
 (let ((?x1233 (+ (- (- (+ ?x1262 (* (* 10.0 _a_0_) l_1_2_37)) ?x1228) ?x1230) (* (* 5.0 _a_2_) l_1_2_24))))
 (let ((?x1270 (- (+ (- (- ?x1233 ?x1236) ?x1240) (* (* 5.0 _a_2_) l_1_2_34)) ?x1251)))
 (let ((?x2424 (+ (+ (+ (- (- (+ (+ ?x1270 ?x1267) ?x2290) ?x2415) ?x2411) ?x2413) ?x2427) ?x2422)))
 (= (- (- ?x2424 (* (* 2.0 l_1_2_45) l_1_2_46)) 1.0) 0.0))))))))))))))))))
(assert
 (let ((?x1591 (* 100.0 l_1_2_9)))
 (let ((?x1583 (* l_1_2_50 l_1_2_50)))
 (let ((?x255 (* l_1_2_49 l_1_2_49)))
 (let ((?x253 (* l_1_2_48 l_1_2_48)))
 (let ((?x257 (* 15.0 l_1_2_41)))
 (let ((?x1172 (* 15.0 l_1_2_27)))
 (let ((?x1158 (* _a_3_ l_1_2_7)))
 (let ((?x305 (* _a_3_ l_1_2_30)))
 (let ((?x303 (* _a_3_ l_1_2_3)))
 (let ((?x1157 (- (- (- (* (- _a_3_) l_1_2_21) (* _a_3_ l_1_2_23)) ?x303) ?x305)))
 (let ((?x1168 (- (- (- ?x1157 ?x1158) l_1_2_10) (* l_1_2_14 (- _a_0_ (* 10.0 _a_1_))))))
 (let ((?x1174 (- ?x1168 (* l_1_2_20 (+ (* (* 2.0 _a_0_) _a_3_) (* _a_1_ _a_1_))))))
 (let ((?x1173 (+ (- (- ?x1174 l_1_2_22) (* l_1_2_24 (- _a_1_ (* 5.0 _a_3_)))) ?x1172)))
 (let ((?x250 (- (- (- ?x1173 l_1_2_28) (* l_1_2_34 (- _a_1_ (* 5.0 _a_3_)))) l_1_2_36)))
 (let ((?x1582 (- (- (- (+ (- (- ?x250 l_1_2_38) l_1_2_4) ?x257) ?x253) ?x255) (* l_1_2_5 (- _a_0_ (* 10.0 _a_1_))))))
 (= (+ (- (- ?x1582 ?x1583) ?x1591) (/ 7.0 2.0)) 0.0)))))))))))))))))
(assert
 (let ((?x2071 (* 50.0 l_1_2_41)))
 (let ((?x1625 (* 10.0 l_1_2_4)))
 (let ((?x2418 (* 10.0 l_1_2_38)))
 (let ((?x1879 (* 10.0 l_1_2_36)))
 (let ((?x432 (* 10.0 l_1_2_28)))
 (let ((?x433 (* 50.0 l_1_2_27)))
 (let ((?x1178 (* 10.0 l_1_2_22)))
 (let ((?x2455 (* 10.0 l_1_2_10)))
 (let ((?x2453 (* _a_1_ l_1_2_7)))
 (let ((?x725 (* _a_1_ l_1_2_30)))
 (let ((?x1161 (* _a_1_ l_1_2_3)))
 (let ((?x2219 (* _a_1_ l_1_2_23)))
 (let ((?x2217 (* _a_1_ l_1_2_21)))
 (let ((?x2208 (+ (* (* (* (- 2.0) _a_0_) _a_1_) l_1_2_20) (* (* 10.0 _a_0_) l_1_2_14))))
 (let ((?x540 (- (- (- (+ ?x2208 (* (* 10.0 _a_0_) l_1_2_5)) ?x2217) ?x2219) ?x1161)))
 (let ((?x1181 (- (- (- (+ (- (- ?x540 ?x725) ?x2453) ?x2455) l_1_2_16) l_1_2_17) l_1_2_18)))
 (let ((?x435 (- (- (+ ?x1181 ?x1178) (* l_1_2_24 (- _a_0_ (* 5.0 _a_1_)))) ?x433)))
 (let ((?x2416 (+ (- (+ ?x435 ?x432) (* l_1_2_34 (- _a_0_ (* 5.0 _a_1_)))) ?x1879)))
 (let ((?x2069 (- (- (+ (- (+ ?x2416 ?x2418) l_1_2_39) ?x1625) ?x2071) (* (* 2.0 l_1_2_45) l_1_2_48))))
 (= (+ (- ?x2069 l_1_2_6) 3.0) 0.0)))))))))))))))))))))
(assert
 (let ((?x2313 (* 10.0 l_1_2_32)))
 (let ((?x2304 (* 10.0 l_1_2_31)))
 (let ((?x2297 (* 100.0 l_1_2_29)))
 (let ((?x2296 (* 100.0 l_1_2_2)))
 (let ((?x1878 (* _a_2_ l_1_2_34)))
 (let ((?x2155 (* _a_2_ l_1_2_24)))
 (let ((?x1266 (+ (* (* (* (- 2.0) _a_1_) _a_2_) l_1_2_20) (* (* 10.0 _a_1_) l_1_2_25))))
 (let ((?x1848 (+ (+ ?x1266 (* (* 10.0 _a_1_) l_1_2_37)) (* (* 10.0 _a_2_) l_1_2_14))))
 (let ((?x2302 (- (+ (- (- ?x1848 ?x2155) ?x1878) (* (* 10.0 _a_2_) l_1_2_5)) ?x2296)))
 (let ((?x2287 (- (+ (+ (- ?x2302 ?x2297) ?x2304) ?x2313) (* (* 2.0 l_1_2_46) l_1_2_48))))
 (= (- ?x2287 (* (* 2.0 l_1_2_47) l_1_2_49)) 0.0))))))))))))
(assert
 (let ((?x884 (* 10.0 l_1_2_29)))
 (let ((?x762 (* 10.0 l_1_2_2)))
 (let ((?x1070 (* _a_2_ l_1_2_5)))
 (let ((?x316 (* _a_2_ l_1_2_14)))
 (let ((?x621 (+ (- (- (* (* (* (- 2.0) _a_2_) _a_3_) l_1_2_20) ?x316) ?x1070) (* (* 10.0 _a_3_) l_1_2_25))))
 (= (+ (+ (+ ?x621 (* (* 10.0 _a_3_) l_1_2_37)) ?x762) ?x884) 0.0)))))))
(assert
 (let ((?x884 (* 10.0 l_1_2_29)))
 (let ((?x762 (* 10.0 l_1_2_2)))
 (let ((?x1780 (+ (+ (- (* (- _a_1_) l_1_2_25) (* _a_1_ l_1_2_37)) ?x762) ?x884)))
 (= (- (- ?x1780 l_1_2_31) l_1_2_32) 0.0)))))
(assert
 (let ((?x2382 (- (- (- (* (- _a_3_) l_1_2_25) (* _a_3_ l_1_2_37)) l_1_2_2) l_1_2_29)))
 (= ?x2382 0.0)))
(assert
 (let ((?x886 (* _a_3_ l_1_2_34)))
 (let ((?x1992 (* _a_3_ l_1_2_24)))
 (let ((?x2389 (- (- (- (* (* (* (- 2.0) _a_1_) _a_3_) l_1_2_20) ?x1992) ?x886) (* l_1_2_14 (- _a_1_ (* 10.0 _a_3_))))))
 (let ((?x629 (- (- (- ?x2389 l_1_2_27) l_1_2_41) (* l_1_2_5 (- _a_1_ (* 10.0 _a_3_))))))
 (= (+ ?x629 (* 20.0 l_1_2_9)) 0.0))))))
(assert
 (let ((?x905 (- (- (* (- _a_3_) l_1_2_14) (* _a_3_ l_1_2_5)) (* (* l_1_2_20 _a_3_) _a_3_))))
 (= (- ?x905 l_1_2_9) 0.0)))
(assert
 (let ((?x743 (* l_1_2_47 l_1_2_47)))
 (let ((?x739 (* l_1_2_46 l_1_2_46)))
 (let ((?x1133 (* 5.0 l_1_2_32)))
 (let ((?x1132 (* 5.0 l_1_2_31)))
 (let ((?x414 (* 100.0 l_1_2_26)))
 (let ((?x412 (- (- (- (- l_1_2_13) l_1_2_15) (* (* l_1_2_20 _a_2_) _a_2_)) (* l_1_2_25 (- _a_0_ (* 10.0 _a_2_))))))
 (let ((?x732 (- (- (- (+ (+ (- ?x412 ?x414) ?x1132) ?x1133) l_1_2_33) l_1_2_35) (* l_1_2_37 (- _a_0_ (* 10.0 _a_2_))))))
 (= (- (- (- ?x732 l_1_2_43) ?x739) ?x743) 0.0)))))))))
(assert
 (let ((?x2029 (+ (- (* (- _a_2_) l_1_2_25) (* _a_2_ l_1_2_37)) (* 20.0 l_1_2_26))))
 (= ?x2029 0.0)))
(assert
 (= (- l_1_2_26) 0.0))
(assert
 (>= l_1_2_1 0.0))
(assert
 (>= l_1_2_2 0.0))
(assert
 (>= l_1_2_3 0.0))
(assert
 (>= l_1_2_4 0.0))
(assert
 (>= l_1_2_5 0.0))
(assert
 (>= l_1_2_6 0.0))
(assert
 (>= l_1_2_7 0.0))
(assert
 (>= l_1_2_8 0.0))
(assert
 (>= l_1_2_9 0.0))
(assert
 (>= l_1_2_10 0.0))
(assert
 (>= l_1_2_11 0.0))
(assert
 (>= l_1_2_12 0.0))
(assert
 (>= l_1_2_13 0.0))
(assert
 (>= l_1_2_14 0.0))
(assert
 (>= l_1_2_15 0.0))
(assert
 (>= l_1_2_16 0.0))
(assert
 (>= l_1_2_17 0.0))
(assert
 (>= l_1_2_18 0.0))
(assert
 (>= l_1_2_19 0.0))
(assert
 (>= l_1_2_20 0.0))
(assert
 (>= l_1_2_21 0.0))
(assert
 (>= l_1_2_22 0.0))
(assert
 (>= l_1_2_23 0.0))
(assert
 (>= l_1_2_24 0.0))
(assert
 (>= l_1_2_25 0.0))
(assert
 (>= l_1_2_26 0.0))
(assert
 (>= l_1_2_27 0.0))
(assert
 (>= l_1_2_28 0.0))
(assert
 (>= l_1_2_29 0.0))
(assert
 (>= l_1_2_30 0.0))
(assert
 (>= l_1_2_31 0.0))
(assert
 (>= l_1_2_32 0.0))
(assert
 (>= l_1_2_33 0.0))
(assert
 (>= l_1_2_34 0.0))
(assert
 (>= l_1_2_35 0.0))
(assert
 (>= l_1_2_36 0.0))
(assert
 (>= l_1_2_37 0.0))
(assert
 (>= l_1_2_38 0.0))
(assert
 (>= l_1_2_39 0.0))
(assert
 (>= l_1_2_40 0.0))
(assert
 (>= l_1_2_41 0.0))
(assert
 (>= l_1_2_42 0.0))
(assert
 (>= l_1_2_43 0.0))
(assert
 (>= l_1_2_44 0.0))
(assert
 (>= l_1_2_45 0.0))
(assert
 (>= l_1_2_47 0.0))
(assert
 (>= l_1_2_50 0.0))
(assert
 (let ((?x949 (* l_1_3_33 l_1_3_33)))
 (let ((?x1016 (* 5.0 l_1_3_30)))
 (let ((?x1854 (* 25.0 l_1_3_20)))
 (let ((?x2164 (* 5.0 l_1_3_16)))
 (let ((?x1254 (* 5.0 l_1_3_15)))
 (let ((?x1475 (* (/ 11.0 2.0) _a_2_)))
 (let ((?x1732 (* _a_0_ l_1_3_5)))
 (let ((?x1728 (* _a_0_ l_1_3_3)))
 (let ((?x1731 (- (- (* (- _a_0_) l_1_3_19) (* (* 5.0 _a_0_) l_1_3_2)) ?x1728)))
 (let ((?x1473 (+ (+ (- (- ?x1731 (* (* 5.0 _a_0_) l_1_3_4)) ?x1732) _a_0_) (* 1.0 _a_1_))))
 (let ((?x2165 (- (- (- (+ (+ ?x1473 ?x1475) (* 1.0 _a_3_)) l_1_3_1) ?x1254) ?x2164)))
 (let ((?x948 (- (- (- (- ?x2165 ?x1854) (* (* l_1_3_24 _a_0_) _a_0_)) ?x1016) l_1_3_32)))
 (= (- (- (- ?x948 ?x949) l_1_3_8) l_1_3_9) 0.0))))))))))))))
(assert
 (let ((?x1314 (* 10.0 l_1_3_28)))
 (let ((?x2306 (* 10.0 l_1_3_27)))
 (let ((?x2305 (* 50.0 l_1_3_25)))
 (let ((?x991 (* 10.0 l_1_3_20)))
 (let ((?x2395 (* 50.0 l_1_3_18)))
 (let ((?x2007 (* 10.0 l_1_3_13)))
 (let ((?x2005 (* 2.0 _a_3_)))
 (let ((?x1475 (* (/ 11.0 2.0) _a_2_)))
 (let ((?x1988 (* _a_1_ l_1_3_5)))
 (let ((?x2087 (* _a_1_ l_1_3_3)))
 (let ((?x2090 (* _a_1_ l_1_3_19)))
 (let ((?x1925 (- (* (* (* (- 2.0) _a_0_) _a_1_) l_1_3_24) (* (* 10.0 _a_0_) l_1_3_12))))
 (let ((?x1979 (- (- (- (- ?x1925 (* (* 10.0 _a_0_) l_1_3_29)) ?x2090) ?x2087) ?x1988)))
 (let ((?x2394 (+ (+ (- (+ (+ (+ ?x1979 _a_1_) ?x1475) ?x2005) ?x2007) l_1_3_15) l_1_3_16)))
 (let ((?x2311 (+ (- (- ?x2394 ?x2395) (* l_1_3_2 (+ (- _a_0_) (* 5.0 _a_1_)))) ?x991)))
 (let ((?x539 (- (+ (- (- (- ?x2311 ?x2305) ?x2306) ?x1314) l_1_3_30) (* (* 2.0 l_1_3_33) l_1_3_36))))
 (= (- ?x539 (* l_1_3_4 (+ (- _a_0_) (* 5.0 _a_1_)))) 0.0))))))))))))))))))
(assert
 (let ((?x2254 (* 50.0 l_1_3_31)))
 (let ((?x2346 (* 10.0 l_1_3_23)))
 (let ((?x2429 (* 10.0 l_1_3_17)))
 (let ((?x2442 (* 50.0 l_1_3_14)))
 (let ((?x2459 (* 10.0 l_1_3_10)))
 (let ((?x2474 (* _a_2_ l_1_3_5)))
 (let ((?x2484 (* _a_2_ l_1_3_3)))
 (let ((?x893 (* _a_2_ l_1_3_19)))
 (let ((?x2300 (- (* (* (* (- 2.0) _a_0_) _a_2_) l_1_3_24) (* (* 10.0 _a_0_) l_1_3_11))))
 (let ((?x2483 (- (- (- ?x2300 (* (* 10.0 _a_0_) l_1_3_22)) ?x893) (* (* 5.0 _a_2_) l_1_3_2))))
 (let ((?x2458 (+ (- (- (- ?x2483 ?x2484) (* (* 5.0 _a_2_) l_1_3_4)) ?x2474) _a_2_)))
 (let ((?x2182 (- (- (- (- (- (- ?x2458 ?x2459) ?x2442) ?x2429) ?x2346) ?x2254) (* (* 2.0 l_1_3_33) l_1_3_34))))
 (= ?x2182 0.0))))))))))))))
(assert
 (let ((?x764 (* l_1_3_38 l_1_3_38)))
 (let ((?x837 (* l_1_3_37 l_1_3_37)))
 (let ((?x835 (* l_1_3_36 l_1_3_36)))
 (let ((?x920 (* 15.0 l_1_3_25)))
 (let ((?x972 (* 100.0 l_1_3_21)))
 (let ((?x997 (* 15.0 l_1_3_18)))
 (let ((?x1076 (* _a_3_ l_1_3_5)))
 (let ((?x1053 (+ (- (- (* (- _a_3_) l_1_3_19) (* _a_3_ l_1_3_3)) ?x1076) _a_3_)))
 (let ((?x996 (+ (- ?x1053 (* l_1_3_12 (+ (- _a_0_) (* 10.0 _a_1_)))) l_1_3_13)))
 (let ((?x971 (- (- (+ ?x996 ?x997) (* l_1_3_2 (+ (- _a_1_) (* 5.0 _a_3_)))) l_1_3_20)))
 (let ((?x919 (- (- ?x971 ?x972) (* l_1_3_24 (+ (* (* 2.0 _a_0_) _a_3_) (* _a_1_ _a_1_))))))
 (let ((?x834 (- (+ (+ (+ ?x919 ?x920) l_1_3_27) l_1_3_28) (* l_1_3_29 (+ (- _a_0_) (* 10.0 _a_1_))))))
 (let ((?x767 (- (- (- (- ?x834 ?x835) ?x837) ?x764) (* l_1_3_4 (+ (- _a_1_) (* 5.0 _a_3_))))))
 (= ?x767 0.0)))))))))))))))
(assert
 (let ((?x2592 (* 100.0 l_1_3_7)))
 (let ((?x2584 (* 10.0 l_1_3_31)))
 (let ((?x2582 (* 100.0 l_1_3_26)))
 (let ((?x2580 (* 10.0 l_1_3_14)))
 (let ((?x1629 (* _a_2_ l_1_3_4)))
 (let ((?x1705 (* _a_2_ l_1_3_2)))
 (let ((?x2571 (- (* (* (* (- 2.0) _a_1_) _a_2_) l_1_3_24) (* (* 10.0 _a_1_) l_1_3_11))))
 (let ((?x2575 (- (- ?x2571 (* (* 10.0 _a_1_) l_1_3_22)) (* (* 10.0 _a_2_) l_1_3_12))))
 (let ((?x2581 (+ (+ (- (+ ?x2575 ?x1705) (* (* 10.0 _a_2_) l_1_3_29)) ?x1629) ?x2580)))
 (let ((?x2591 (- (- (+ (- ?x2581 ?x2582) ?x2584) (* (* 2.0 l_1_3_34) l_1_3_36)) (* (* 2.0 l_1_3_35) l_1_3_37))))
 (= (- ?x2591 ?x2592) 0.0))))))))))))
(assert
 (let ((?x2658 (* 20.0 l_1_3_21)))
 (let ((?x2557 (* _a_3_ l_1_3_4)))
 (let ((?x149 (* _a_3_ l_1_3_2)))
 (let ((?x2656 (- (+ (+ (* (* (* (- 2.0) _a_1_) _a_3_) l_1_3_24) ?x149) ?x2557) (* l_1_3_12 (+ (- _a_1_) (* 10.0 _a_3_))))))
 (let ((?x2662 (- (- (+ (- ?x2656 l_1_3_18) ?x2658) l_1_3_25) (* l_1_3_29 (+ (- _a_1_) (* 10.0 _a_3_))))))
 (= ?x2662 0.0)))))))
(assert
 (let ((?x2730 (* 100.0 l_1_3_6)))
 (let ((?x2728 (* l_1_3_35 l_1_3_35)))
 (let ((?x2726 (* l_1_3_34 l_1_3_34)))
 (let ((?x2724 (* 5.0 l_1_3_31)))
 (let ((?x2715 (* 5.0 l_1_3_14)))
 (let ((?x2716 (+ (- l_1_3_10 (* l_1_3_11 (+ (- _a_0_) (* 10.0 _a_2_)))) ?x2715)))
 (let ((?x2719 (- (+ ?x2716 l_1_3_17) (* l_1_3_22 (+ (- _a_0_) (* 10.0 _a_2_))))))
 (let ((?x2727 (- (+ (- (+ ?x2719 l_1_3_23) (* (* l_1_3_24 _a_2_) _a_2_)) ?x2724) ?x2726)))
 (= (- (- ?x2727 ?x2728) ?x2730) 0.0))))))))))
(assert
 (let ((?x2797 (* 20.0 l_1_3_6)))
 (= (+ (+ (* _a_2_ l_1_3_11) (* _a_2_ l_1_3_22)) ?x2797) 0.0)))
(assert
 (= (- l_1_3_6) 0.0))
(assert
 (let ((?x2811 (* 10.0 l_1_3_7)))
 (let ((?x2808 (* 10.0 l_1_3_26)))
 (let ((?x2809 (+ (- (+ (* _a_1_ l_1_3_11) (* _a_1_ l_1_3_22)) l_1_3_14) ?x2808)))
 (= (+ (- ?x2809 l_1_3_31) ?x2811) 0.0)))))
(assert
 (let ((?x2811 (* 10.0 l_1_3_7)))
 (let ((?x2808 (* 10.0 l_1_3_26)))
 (let ((?x2616 (* _a_2_ l_1_3_29)))
 (let ((?x2609 (* _a_2_ l_1_3_12)))
 (let ((?x2827 (- (+ (+ (* (* (* (- 2.0) _a_2_) _a_3_) l_1_3_24) ?x2609) ?x2616) (* (* 10.0 _a_3_) l_1_3_11))))
 (= (+ (+ (- ?x2827 (* (* 10.0 _a_3_) l_1_3_22)) ?x2808) ?x2811) 0.0)))))))
(assert
 (let ((?x2852 (- (- (+ (* _a_3_ l_1_3_11) (* _a_3_ l_1_3_22)) l_1_3_26) l_1_3_7)))
 (= ?x2852 0.0)))
(assert
 (let ((?x2868 (- (- (+ (* _a_3_ l_1_3_12) (* _a_3_ l_1_3_29)) l_1_3_21) (* (* l_1_3_24 _a_3_) _a_3_))))
 (= ?x2868 0.0)))
(assert
 (>= l_1_3_1 0.0))
(assert
 (>= l_1_3_2 0.0))
(assert
 (>= l_1_3_3 0.0))
(assert
 (>= l_1_3_4 0.0))
(assert
 (>= l_1_3_5 0.0))
(assert
 (>= l_1_3_6 0.0))
(assert
 (>= l_1_3_7 0.0))
(assert
 (>= l_1_3_8 0.0))
(assert
 (>= l_1_3_9 0.0))
(assert
 (>= l_1_3_10 0.0))
(assert
 (>= l_1_3_11 0.0))
(assert
 (>= l_1_3_12 0.0))
(assert
 (>= l_1_3_13 0.0))
(assert
 (>= l_1_3_14 0.0))
(assert
 (>= l_1_3_15 0.0))
(assert
 (>= l_1_3_16 0.0))
(assert
 (>= l_1_3_17 0.0))
(assert
 (>= l_1_3_18 0.0))
(assert
 (>= l_1_3_19 0.0))
(assert
 (>= l_1_3_20 0.0))
(assert
 (>= l_1_3_21 0.0))
(assert
 (>= l_1_3_22 0.0))
(assert
 (>= l_1_3_23 0.0))
(assert
 (>= l_1_3_24 0.0))
(assert
 (>= l_1_3_25 0.0))
(assert
 (>= l_1_3_26 0.0))
(assert
 (>= l_1_3_27 0.0))
(assert
 (>= l_1_3_28 0.0))
(assert
 (>= l_1_3_29 0.0))
(assert
 (>= l_1_3_30 0.0))
(assert
 (>= l_1_3_31 0.0))
(assert
 (>= l_1_3_32 0.0))
(assert
 (>= l_1_3_33 0.0))
(assert
 (>= l_1_3_35 0.0))
(assert
 (>= l_1_3_38 0.0))
(check-sat)
(get-model)